c File: flat50_3_0.col
c
c SOURCE: Joseph Culberson (joe@cs.ualberta.ca)
c DESCRIPTION: Quasi-random coloring problem
c              generated with flatness = 0
c                             probability = 0.139
c                             known coloring = 3
c                             random seed = 1024
c              Creation Date:  Tue Jun  9 11:59:21 1998
c Maximum degree = 8 Minimum degree = 1
c p edge 50 115
c cnf created by edge2cnf
p cnf 150 545
-1 -2 0
-1 -3 0
-2 -3 0
1 2 3 0
-4 -5 0
-4 -6 0
-5 -6 0
4 5 6 0
-7 -8 0
-7 -9 0
-8 -9 0
7 8 9 0
-10 -11 0
-10 -12 0
-11 -12 0
10 11 12 0
-13 -14 0
-13 -15 0
-14 -15 0
13 14 15 0
-16 -17 0
-16 -18 0
-17 -18 0
16 17 18 0
-19 -20 0
-19 -21 0
-20 -21 0
19 20 21 0
-22 -23 0
-22 -24 0
-23 -24 0
22 23 24 0
-25 -26 0
-25 -27 0
-26 -27 0
25 26 27 0
-28 -29 0
-28 -30 0
-29 -30 0
28 29 30 0
-31 -32 0
-31 -33 0
-32 -33 0
31 32 33 0
-34 -35 0
-34 -36 0
-35 -36 0
34 35 36 0
-37 -38 0
-37 -39 0
-38 -39 0
37 38 39 0
-40 -41 0
-40 -42 0
-41 -42 0
40 41 42 0
-43 -44 0
-43 -45 0
-44 -45 0
43 44 45 0
-46 -47 0
-46 -48 0
-47 -48 0
46 47 48 0
-49 -50 0
-49 -51 0
-50 -51 0
49 50 51 0
-52 -53 0
-52 -54 0
-53 -54 0
52 53 54 0
-55 -56 0
-55 -57 0
-56 -57 0
55 56 57 0
-58 -59 0
-58 -60 0
-59 -60 0
58 59 60 0
-61 -62 0
-61 -63 0
-62 -63 0
61 62 63 0
-64 -65 0
-64 -66 0
-65 -66 0
64 65 66 0
-67 -68 0
-67 -69 0
-68 -69 0
67 68 69 0
-70 -71 0
-70 -72 0
-71 -72 0
70 71 72 0
-73 -74 0
-73 -75 0
-74 -75 0
73 74 75 0
-76 -77 0
-76 -78 0
-77 -78 0
76 77 78 0
-79 -80 0
-79 -81 0
-80 -81 0
79 80 81 0
-82 -83 0
-82 -84 0
-83 -84 0
82 83 84 0
-85 -86 0
-85 -87 0
-86 -87 0
85 86 87 0
-88 -89 0
-88 -90 0
-89 -90 0
88 89 90 0
-91 -92 0
-91 -93 0
-92 -93 0
91 92 93 0
-94 -95 0
-94 -96 0
-95 -96 0
94 95 96 0
-97 -98 0
-97 -99 0
-98 -99 0
97 98 99 0
-100 -101 0
-100 -102 0
-101 -102 0
100 101 102 0
-103 -104 0
-103 -105 0
-104 -105 0
103 104 105 0
-106 -107 0
-106 -108 0
-107 -108 0
106 107 108 0
-109 -110 0
-109 -111 0
-110 -111 0
109 110 111 0
-112 -113 0
-112 -114 0
-113 -114 0
112 113 114 0
-115 -116 0
-115 -117 0
-116 -117 0
115 116 117 0
-118 -119 0
-118 -120 0
-119 -120 0
118 119 120 0
-121 -122 0
-121 -123 0
-122 -123 0
121 122 123 0
-124 -125 0
-124 -126 0
-125 -126 0
124 125 126 0
-127 -128 0
-127 -129 0
-128 -129 0
127 128 129 0
-130 -131 0
-130 -132 0
-131 -132 0
130 131 132 0
-133 -134 0
-133 -135 0
-134 -135 0
133 134 135 0
-136 -137 0
-136 -138 0
-137 -138 0
136 137 138 0
-139 -140 0
-139 -141 0
-140 -141 0
139 140 141 0
-142 -143 0
-142 -144 0
-143 -144 0
142 143 144 0
-145 -146 0
-145 -147 0
-146 -147 0
145 146 147 0
-148 -149 0
-148 -150 0
-149 -150 0
148 149 150 0
-130 -1 0
-131 -2 0
-132 -3 0
-133 -1 0
-134 -2 0
-135 -3 0
-94 -4 0
-95 -5 0
-96 -6 0
-97 -4 0
-98 -5 0
-99 -6 0
-112 -4 0
-113 -5 0
-114 -6 0
-118 -4 0
-119 -5 0
-120 -6 0
-121 -4 0
-122 -5 0
-123 -6 0
-136 -4 0
-137 -5 0
-138 -6 0
-67 -7 0
-68 -8 0
-69 -9 0
-79 -7 0
-80 -8 0
-81 -9 0
-82 -7 0
-83 -8 0
-84 -9 0
-91 -7 0
-92 -8 0
-93 -9 0
-109 -7 0
-110 -8 0
-111 -9 0
-52 -10 0
-53 -11 0
-54 -12 0
-55 -10 0
-56 -11 0
-57 -12 0
-91 -10 0
-92 -11 0
-93 -12 0
-106 -10 0
-107 -11 0
-108 -12 0
-133 -10 0
-134 -11 0
-135 -12 0
-139 -10 0
-140 -11 0
-141 -12 0
-67 -13 0
-68 -14 0
-69 -15 0
-79 -13 0
-80 -14 0
-81 -15 0
-139 -13 0
-140 -14 0
-141 -15 0
-73 -16 0
-74 -17 0
-75 -18 0
-94 -16 0
-95 -17 0
-96 -18 0
-133 -16 0
-134 -17 0
-135 -18 0
-148 -16 0
-149 -17 0
-150 -18 0
-61 -19 0
-62 -20 0
-63 -21 0
-79 -19 0
-80 -20 0
-81 -21 0
-106 -19 0
-107 -20 0
-108 -21 0
-130 -19 0
-131 -20 0
-132 -21 0
-136 -19 0
-137 -20 0
-138 -21 0
-139 -19 0
-140 -20 0
-141 -21 0
-55 -22 0
-56 -23 0
-57 -24 0
-76 -22 0
-77 -23 0
-78 -24 0
-88 -22 0
-89 -23 0
-90 -24 0
-142 -22 0
-143 -23 0
-144 -24 0
-61 -25 0
-62 -26 0
-63 -27 0
-67 -25 0
-68 -26 0
-69 -27 0
-73 -25 0
-74 -26 0
-75 -27 0
-94 -25 0
-95 -26 0
-96 -27 0
-109 -25 0
-110 -26 0
-111 -27 0
-133 -25 0
-134 -26 0
-135 -27 0
-136 -25 0
-137 -26 0
-138 -27 0
-64 -28 0
-65 -29 0
-66 -30 0
-76 -28 0
-77 -29 0
-78 -30 0
-136 -28 0
-137 -29 0
-138 -30 0
-70 -31 0
-71 -32 0
-72 -33 0
-79 -31 0
-80 -32 0
-81 -33 0
-115 -31 0
-116 -32 0
-117 -33 0
-130 -31 0
-131 -32 0
-132 -33 0
-52 -34 0
-53 -35 0
-54 -36 0
-58 -34 0
-59 -35 0
-60 -36 0
-73 -34 0
-74 -35 0
-75 -36 0
-82 -34 0
-83 -35 0
-84 -36 0
-82 -37 0
-83 -38 0
-84 -39 0
-88 -37 0
-89 -38 0
-90 -39 0
-97 -37 0
-98 -38 0
-99 -39 0
-112 -37 0
-113 -38 0
-114 -39 0
-118 -37 0
-119 -38 0
-120 -39 0
-73 -40 0
-74 -41 0
-75 -42 0
-97 -40 0
-98 -41 0
-99 -42 0
-106 -40 0
-107 -41 0
-108 -42 0
-127 -40 0
-128 -41 0
-129 -42 0
-55 -43 0
-56 -44 0
-57 -45 0
-82 -43 0
-83 -44 0
-84 -45 0
-94 -43 0
-95 -44 0
-96 -45 0
-100 -43 0
-101 -44 0
-102 -45 0
-109 -43 0
-110 -44 0
-111 -45 0
-118 -43 0
-119 -44 0
-120 -45 0
-148 -43 0
-149 -44 0
-150 -45 0
-88 -46 0
-89 -47 0
-90 -48 0
-106 -46 0
-107 -47 0
-108 -48 0
-145 -46 0
-146 -47 0
-147 -48 0
-109 -49 0
-110 -50 0
-111 -51 0
-118 -49 0
-119 -50 0
-120 -51 0
-142 -49 0
-143 -50 0
-144 -51 0
-145 -49 0
-146 -50 0
-147 -51 0
-115 -52 0
-116 -53 0
-117 -54 0
-130 -52 0
-131 -53 0
-132 -54 0
-148 -52 0
-149 -53 0
-150 -54 0
-103 -55 0
-104 -56 0
-105 -57 0
-106 -55 0
-107 -56 0
-108 -57 0
-133 -55 0
-134 -56 0
-135 -57 0
-148 -55 0
-149 -56 0
-150 -57 0
-103 -58 0
-104 -59 0
-105 -60 0
-109 -58 0
-110 -59 0
-111 -60 0
-133 -58 0
-134 -59 0
-135 -60 0
-136 -58 0
-137 -59 0
-138 -60 0
-109 -61 0
-110 -62 0
-111 -63 0
-121 -61 0
-122 -62 0
-123 -63 0
-145 -61 0
-146 -62 0
-147 -63 0
-148 -61 0
-149 -62 0
-150 -63 0
-118 -64 0
-119 -65 0
-120 -66 0
-112 -67 0
-113 -68 0
-114 -69 0
-133 -67 0
-134 -68 0
-135 -69 0
-145 -67 0
-146 -68 0
-147 -69 0
-118 -70 0
-119 -71 0
-120 -72 0
-124 -70 0
-125 -71 0
-126 -72 0
-130 -73 0
-131 -74 0
-132 -75 0
-136 -73 0
-137 -74 0
-138 -75 0
-109 -79 0
-110 -80 0
-111 -81 0
-118 -79 0
-119 -80 0
-120 -81 0
-106 -82 0
-107 -83 0
-108 -84 0
-109 -82 0
-110 -83 0
-111 -84 0
-121 -82 0
-122 -83 0
-123 -84 0
-148 -82 0
-149 -83 0
-150 -84 0
-106 -85 0
-107 -86 0
-108 -87 0
-139 -88 0
-140 -89 0
-141 -90 0
-115 -91 0
-116 -92 0
-117 -93 0
-112 -94 0
-113 -95 0
-114 -96 0
-124 -94 0
-125 -95 0
-126 -96 0
-142 -94 0
-143 -95 0
-144 -96 0
-130 -100 0
-131 -101 0
-132 -102 0
-142 -100 0
-143 -101 0
-144 -102 0
-145 -100 0
-146 -101 0
-147 -102 0
